NAME          
ROWS
 N  OBJ
 L  c2
 L  c3
 L  c4
 L  c5
 L  c6
 G  c1
COLUMNS
    ss[1]     c1        1
    ss[1]     OBJ       1000
    s[1]      c2        1
    s[1]      OBJ       -1000
    s[2]      c3        1
    s[2]      OBJ       -1000
    s[3]      c4        1
    s[3]      OBJ       -1000
    s[4]      c5        1
    s[4]      OBJ       -1000
    s[5]      c6        1
    s[5]      OBJ       -1000
    MARKER    'MARKER'                 'INTORG'
    x[1]      c2        853
    x[1]      c3        265
    x[1]      c4        630
    x[1]      c5        578
    x[1]      c6        543
    x[1]      c1        556
    x[1]      OBJ       -922
    x[2]      c2        339
    x[2]      c3        915
    x[2]      c4        569
    x[2]      c5        593
    x[2]      c6        685
    x[2]      c1        125
    x[2]      OBJ       -1379
    x[3]      c2        861
    x[3]      c3        629
    x[3]      c4        771
    x[3]      c5        760
    x[3]      c6        191
    x[3]      c1        736
    x[3]      OBJ       -823
    x[4]      c2        343
    x[4]      c3        656
    x[4]      c4        85
    x[4]      c5        261
    x[4]      c6        539
    x[4]      c1        557
    x[4]      OBJ       -576
    x[5]      c2        424
    x[5]      c3        640
    x[5]      c4        493
    x[5]      c5        248
    x[5]      c6        84
    x[5]      c1        301
    x[5]      OBJ       -1102
    x[6]      c2        282
    x[6]      c3        721
    x[6]      c4        579
    x[6]      c5        172
    x[6]      c6        844
    x[6]      c1        6
    x[6]      OBJ       -1525
    x[7]      c2        830
    x[7]      c3        921
    x[7]      c4        257
    x[7]      c5        246
    x[7]      c6        570
    x[7]      c1        111
    x[7]      OBJ       -1443
    x[8]      c2        442
    x[8]      c3        636
    x[8]      c4        859
    x[8]      c5        735
    x[8]      c6        109
    x[8]      c1        16
    x[8]      OBJ       -1425
    x[9]      c2        222
    x[9]      c3        35
    x[9]      c4        211
    x[9]      c5        70
    x[9]      c6        628
    x[9]      c1        704
    x[9]      OBJ       -646
    x[10]     c2        447
    x[10]     c3        756
    x[10]     c4        703
    x[10]     c5        378
    x[10]     c6        612
    x[10]     c1        952
    x[10]     OBJ       -336
    x[11]     c2        925
    x[11]     c3        46
    x[11]     c4        896
    x[11]     c5        602
    x[11]     c6        408
    x[11]     c1        408
    x[11]     OBJ       -1251
    x[12]     c2        139
    x[12]     c3        173
    x[12]     c4        179
    x[12]     c5        464
    x[12]     c6        431
    x[12]     c1        492
    x[12]     OBJ       -858
    x[13]     c2        524
    x[13]     c3        56
    x[13]     c4        194
    x[13]     c5        582
    x[13]     c6        874
    x[13]     c1        163
    x[13]     OBJ       -1379
    x[14]     c2        606
    x[14]     c3        460
    x[14]     c4        718
    x[14]     c5        231
    x[14]     c6        483
    x[14]     c1        938
    x[14]     OBJ       -325
    x[15]     c2        840
    x[15]     c3        93
    x[15]     c4        173
    x[15]     c5        480
    x[15]     c6        30
    x[15]     c1        315
    x[15]     OBJ       -1022
    x[16]     c2        490
    x[16]     c3        741
    x[16]     c4        325
    x[16]     c5        499
    x[16]     c6        860
    x[16]     c1        949
    x[16]     OBJ       -655
    x[17]     c2        39
    x[17]     c3        622
    x[17]     c4        744
    x[17]     c5        537
    x[17]     c6        83
    x[17]     c1        670
    x[17]     OBJ       -482
    x[18]     c2        741
    x[18]     c3        200
    x[18]     c4        788
    x[18]     c5        769
    x[18]     c6        83
    x[18]     c1        1000
    x[18]     OBJ       -230
    x[19]     c2        926
    x[19]     c3        138
    x[19]     c4        481
    x[19]     c5        32
    x[19]     c6        787
    x[19]     c1        457
    x[19]     OBJ       -866
    x[20]     c2        518
    x[20]     c3        20
    x[20]     c4        779
    x[20]     c5        256
    x[20]     c6        254
    x[20]     c1        816
    x[20]     OBJ       -361
    x[21]     c2        843
    x[21]     c3        890
    x[21]     c4        662
    x[21]     c5        360
    x[21]     c6        705
    x[21]     c1        357
    x[21]     OBJ       -1066
    x[22]     c2        425
    x[22]     c3        26
    x[22]     c4        755
    x[22]     c5        854
    x[22]     c6        155
    x[22]     c1        495
    x[22]     OBJ       -971
    x[23]     c2        410
    x[23]     c3        779
    x[23]     c4        866
    x[23]     c5        633
    x[23]     c6        335
    x[23]     c1        916
    x[23]     OBJ       -826
    x[24]     c2        788
    x[24]     c3        232
    x[24]     c4        387
    x[24]     c5        512
    x[24]     c6        182
    x[24]     c1        852
    x[24]     OBJ       -590
    x[25]     c2        196
    x[25]     c3        858
    x[25]     c4        666
    x[25]     c5        613
    x[25]     c6        375
    x[25]     c1        614
    x[25]     OBJ       -626
    x[26]     c2        801
    x[26]     c3        242
    x[26]     c4        897
    x[26]     c5        61
    x[26]     c6        511
    x[26]     c1        161
    x[26]     OBJ       -1070
    x[27]     c2        255
    x[27]     c3        325
    x[27]     c4        462
    x[27]     c5        280
    x[27]     c6        668
    x[27]     c1        60
    x[27]     OBJ       -1073
    x[28]     c2        202
    x[28]     c3        807
    x[28]     c4        589
    x[28]     c5        490
    x[28]     c6        403
    x[28]     c1        382
    x[28]     OBJ       -1203
    x[29]     c2        285
    x[29]     c3        971
    x[29]     c4        925
    x[29]     c5        728
    x[29]     c6        696
    x[29]     c1        373
    x[29]     OBJ       -1095
    x[30]     c2        757
    x[30]     c3        787
    x[30]     c4        921
    x[30]     c5        238
    x[30]     c6        760
    x[30]     c1        570
    x[30]     OBJ       -1085
    x[31]     c2        864
    x[31]     c3        475
    x[31]     c4        855
    x[31]     c5        494
    x[31]     c6        623
    x[31]     c1        182
    x[31]     OBJ       -1584
    x[32]     c2        673
    x[32]     c3        500
    x[32]     c4        364
    x[32]     c5        475
    x[32]     c6        684
    x[32]     c1        934
    x[32]     OBJ       -434
    x[33]     c2        641
    x[33]     c3        962
    x[33]     c4        372
    x[33]     c5        778
    x[33]     c6        262
    x[33]     c1        129
    x[33]     OBJ       -1196
    x[34]     c2        212
    x[34]     c3        40
    x[34]     c4        466
    x[34]     c5        681
    x[34]     c6        161
    x[34]     c1        542
    x[34]     OBJ       -674
    x[35]     c2        7
    x[35]     c3        437
    x[35]     c4        101
    x[35]     c5        28
    x[35]     c6        165
    x[35]     c1        767
    x[35]     OBJ       -476
    x[36]     c2        22
    x[36]     c3        923
    x[36]     c4        684
    x[36]     c5        200
    x[36]     c6        878
    x[36]     c1        964
    x[36]     OBJ       -342
    x[37]     c2        596
    x[37]     c3        740
    x[37]     c4        87
    x[37]     c5        468
    x[37]     c6        643
    x[37]     c1        896
    x[37]     OBJ       -616
    x[38]     c2        216
    x[38]     c3        716
    x[38]     c4        394
    x[38]     c5        519
    x[38]     c6        158
    x[38]     c1        350
    x[38]     OBJ       -909
    x[39]     c2        761
    x[39]     c3        489
    x[39]     c4        622
    x[39]     c5        640
    x[39]     c6        861
    x[39]     c1        178
    x[39]     OBJ       -1597
    x[40]     c2        824
    x[40]     c3        285
    x[40]     c4        391
    x[40]     c5        603
    x[40]     c6        796
    x[40]     c1        557
    x[40]     OBJ       -826
    x[41]     c2        505
    x[41]     c3        767
    x[41]     c4        932
    x[41]     c5        341
    x[41]     c6        881
    x[41]     c1        975
    x[41]     OBJ       -492
    x[42]     c2        83
    x[42]     c3        820
    x[42]     c4        336
    x[42]     c5        146
    x[42]     c6        29
    x[42]     c1        70
    x[42]     OBJ       -958
    x[43]     c2        403
    x[43]     c3        173
    x[43]     c4        854
    x[43]     c5        149
    x[43]     c6        402
    x[43]     c1        226
    x[43]     OBJ       -888
    x[44]     c2        687
    x[44]     c3        450
    x[44]     c4        943
    x[44]     c5        959
    x[44]     c6        18
    x[44]     c1        356
    x[44]     OBJ       -1204
    x[45]     c2        210
    x[45]     c3        965
    x[45]     c4        305
    x[45]     c5        934
    x[45]     c6        202
    x[45]     c1        404
    x[45]     OBJ       -1015
    x[46]     c2        69
    x[46]     c3        813
    x[46]     c4        948
    x[46]     c5        877
    x[46]     c6        665
    x[46]     c1        79
    x[46]     OBJ       -1456
    x[47]     c2        271
    x[47]     c3        952
    x[47]     c4        895
    x[47]     c5        291
    x[47]     c6        796
    x[47]     c1        833
    x[47]     OBJ       -874
    x[48]     c2        177
    x[48]     c3        666
    x[48]     c4        331
    x[48]     c5        980
    x[48]     c6        263
    x[48]     c1        616
    x[48]     OBJ       -817
    x[49]     c2        49
    x[49]     c3        541
    x[49]     c4        91
    x[49]     c5        166
    x[49]     c6        886
    x[49]     c1        575
    x[49]     OBJ       -651
    x[50]     c2        564
    x[50]     c3        604
    x[50]     c4        95
    x[50]     c5        851
    x[50]     c6        618
    x[50]     c1        987
    x[50]     OBJ       -720
    x[51]     c2        821
    x[51]     c3        531
    x[51]     c4        990
    x[51]     c5        964
    x[51]     c6        571
    x[51]     c1        340
    x[51]     OBJ       -1233
    x[52]     c2        923
    x[52]     c3        521
    x[52]     c4        874
    x[52]     c5        832
    x[52]     c6        757
    x[52]     c1        794
    x[52]     OBJ       -796
    x[53]     c2        842
    x[53]     c3        511
    x[53]     c4        521
    x[53]     c5        644
    x[53]     c6        528
    x[53]     c1        321
    x[53]     OBJ       -1061
    x[54]     c2        347
    x[54]     c3        906
    x[54]     c4        281
    x[54]     c5        161
    x[54]     c6        39
    x[54]     c1        337
    x[54]     OBJ       -781
    x[55]     c2        618
    x[55]     c3        363
    x[55]     c4        987
    x[55]     c5        521
    x[55]     c6        508
    x[55]     c1        580
    x[55]     OBJ       -746
    x[56]     c2        673
    x[56]     c3        718
    x[56]     c4        177
    x[56]     c5        804
    x[56]     c6        698
    x[56]     c1        920
    x[56]     OBJ       -448
    x[57]     c2        596
    x[57]     c3        946
    x[57]     c4        959
    x[57]     c5        375
    x[57]     c6        344
    x[57]     c1        425
    x[57]     OBJ       -1061
    x[58]     c2        718
    x[58]     c3        388
    x[58]     c4        159
    x[58]     c5        299
    x[58]     c6        471
    x[58]     c1        170
    x[58]     OBJ       -929
    x[59]     c2        785
    x[59]     c3        843
    x[59]     c4        647
    x[59]     c5        184
    x[59]     c6        663
    x[59]     c1        955
    x[59]     OBJ       -511
    x[60]     c2        518
    x[60]     c3        130
    x[60]     c4        245
    x[60]     c5        938
    x[60]     c6        780
    x[60]     c1        581
    x[60]     OBJ       -882
    x[61]     c2        907
    x[61]     c3        24
    x[61]     c4        395
    x[61]     c5        183
    x[61]     c6        38
    x[61]     c1        739
    x[61]     OBJ       -255
    x[62]     c2        170
    x[62]     c3        740
    x[62]     c4        865
    x[62]     c5        959
    x[62]     c6        546
    x[62]     c1        622
    x[62]     OBJ       -844
    x[63]     c2        100
    x[63]     c3        108
    x[63]     c4        267
    x[63]     c5        991
    x[63]     c6        167
    x[63]     c1        473
    x[63]     OBJ       -818
    x[64]     c2        58
    x[64]     c3        457
    x[64]     c4        231
    x[64]     c5        479
    x[64]     c6        191
    x[64]     c1        789
    x[64]     OBJ       -488
    x[65]     c2        127
    x[65]     c3        212
    x[65]     c4        586
    x[65]     c5        122
    x[65]     c6        907
    x[65]     c1        946
    x[65]     OBJ       -552
    x[66]     c2        912
    x[66]     c3        977
    x[66]     c4        532
    x[66]     c5        83
    x[66]     c6        210
    x[66]     c1        499
    x[66]     OBJ       -1062
    x[67]     c2        344
    x[67]     c3        780
    x[67]     c4        412
    x[67]     c5        357
    x[67]     c6        646
    x[67]     c1        666
    x[67]     OBJ       -876
    x[68]     c2        575
    x[68]     c3        906
    x[68]     c4        90
    x[68]     c5        276
    x[68]     c6        279
    x[68]     c1        546
    x[68]     OBJ       -707
    x[69]     c2        538
    x[69]     c3        209
    x[69]     c4        849
    x[69]     c5        142
    x[69]     c6        1000
    x[69]     c1        630
    x[69]     OBJ       -965
    x[70]     c2        835
    x[70]     c3        190
    x[70]     c4        684
    x[70]     c5        407
    x[70]     c6        993
    x[70]     c1        997
    x[70]     OBJ       -457
    x[71]     c2        339
    x[71]     c3        191
    x[71]     c4        537
    x[71]     c5        429
    x[71]     c6        467
    x[71]     c1        462
    x[71]     OBJ       -1065
    x[72]     c2        130
    x[72]     c3        461
    x[72]     c4        245
    x[72]     c5        364
    x[72]     c6        364
    x[72]     c1        750
    x[72]     OBJ       -540
    x[73]     c2        644
    x[73]     c3        130
    x[73]     c4        227
    x[73]     c5        26
    x[73]     c6        291
    x[73]     c1        841
    x[73]     OBJ       -436
    x[74]     c2        886
    x[74]     c3        670
    x[74]     c4        551
    x[74]     c5        307
    x[74]     c6        417
    x[74]     c1        795
    x[74]     OBJ       -641
    x[75]     c2        335
    x[75]     c3        120
    x[75]     c4        192
    x[75]     c5        538
    x[75]     c6        541
    x[75]     c1        2
    x[75]     OBJ       -1036
    x[76]     c2        362
    x[76]     c3        265
    x[76]     c4        617
    x[76]     c5        566
    x[76]     c6        607
    x[76]     c1        522
    x[76]     OBJ       -1064
    x[77]     c2        271
    x[77]     c3        161
    x[77]     c4        189
    x[77]     c5        594
    x[77]     c6        653
    x[77]     c1        778
    x[77]     OBJ       -526
    x[78]     c2        319
    x[78]     c3        627
    x[78]     c4        899
    x[78]     c5        71
    x[78]     c6        902
    x[78]     c1        42
    x[78]     OBJ       -1567
    x[79]     c2        116
    x[79]     c3        878
    x[79]     c4        467
    x[79]     c5        713
    x[79]     c6        820
    x[79]     c1        714
    x[79]     OBJ       -860
    x[80]     c2        114
    x[80]     c3        628
    x[80]     c4        481
    x[80]     c5        584
    x[80]     c6        88
    x[80]     c1        645
    x[80]     OBJ       -858
    x[81]     c2        650
    x[81]     c3        568
    x[81]     c4        954
    x[81]     c5        982
    x[81]     c6        20
    x[81]     c1        855
    x[81]     OBJ       -846
    x[82]     c2        801
    x[82]     c3        209
    x[82]     c4        61
    x[82]     c5        836
    x[82]     c6        180
    x[82]     c1        396
    x[82]     OBJ       -745
    x[83]     c2        639
    x[83]     c3        871
    x[83]     c4        206
    x[83]     c5        8
    x[83]     c6        788
    x[83]     c1        768
    x[83]     OBJ       -659
    x[84]     c2        141
    x[84]     c3        159
    x[84]     c4        557
    x[84]     c5        951
    x[84]     c6        461
    x[84]     c1        392
    x[84]     OBJ       -1048
    x[85]     c2        29
    x[85]     c3        521
    x[85]     c4        839
    x[85]     c5        306
    x[85]     c6        449
    x[85]     c1        141
    x[85]     OBJ       -1245
    x[86]     c2        173
    x[86]     c3        397
    x[86]     c4        246
    x[86]     c5        949
    x[86]     c6        47
    x[86]     c1        544
    x[86]     OBJ       -792
    x[87]     c2        421
    x[87]     c3        917
    x[87]     c4        165
    x[87]     c5        386
    x[87]     c6        201
    x[87]     c1        847
    x[87]     OBJ       -615
    x[88]     c2        486
    x[88]     c3        671
    x[88]     c4        661
    x[88]     c5        672
    x[88]     c6        819
    x[88]     c1        263
    x[88]     OBJ       -1306
    x[89]     c2        849
    x[89]     c3        742
    x[89]     c4        342
    x[89]     c5        20
    x[89]     c6        481
    x[89]     c1        325
    x[89]     OBJ       -1139
    x[90]     c2        806
    x[90]     c3        500
    x[90]     c4        966
    x[90]     c5        293
    x[90]     c6        542
    x[90]     c1        227
    x[90]     OBJ       -1150
    x[91]     c2        717
    x[91]     c3        378
    x[91]     c4        288
    x[91]     c5        672
    x[91]     c6        217
    x[91]     c1        765
    x[91]     OBJ       -599
    x[92]     c2        525
    x[92]     c3        796
    x[92]     c4        734
    x[92]     c5        342
    x[92]     c6        501
    x[92]     c1        128
    x[92]     OBJ       -1310
    x[93]     c2        461
    x[93]     c3        936
    x[93]     c4        739
    x[93]     c5        863
    x[93]     c6        820
    x[93]     c1        10
    x[93]     OBJ       -1745
    x[94]     c2        231
    x[94]     c3        606
    x[94]     c4        189
    x[94]     c5        239
    x[94]     c6        207
    x[94]     c1        973
    x[94]     OBJ       -268
    x[95]     c2        328
    x[95]     c3        381
    x[95]     c4        110
    x[95]     c5        551
    x[95]     c6        916
    x[95]     c1        162
    x[95]     OBJ       -1143
    x[96]     c2        929
    x[96]     c3        918
    x[96]     c4        134
    x[96]     c5        570
    x[96]     c6        653
    x[96]     c1        743
    x[96]     OBJ       -882
    x[97]     c2        136
    x[97]     c3        304
    x[97]     c4        209
    x[97]     c5        682
    x[97]     c6        639
    x[97]     c1        208
    x[97]     OBJ       -1097
    x[98]     c2        429
    x[98]     c3        839
    x[98]     c4        141
    x[98]     c5        888
    x[98]     c6        937
    x[98]     c1        223
    x[98]     OBJ       -1452
    x[99]     c2        369
    x[99]     c3        418
    x[99]     c4        226
    x[99]     c5        899
    x[99]     c6        828
    x[99]     c1        981
    x[99]     OBJ       -502
    x[100]    c2        649
    x[100]    c3        268
    x[100]    c4        439
    x[100]    c5        395
    x[100]    c6        405
    x[100]    c1        143
    x[100]    OBJ       -1261
RHS
    rhs       c2        36209
    rhs       c3        39711
    rhs       c4        38244
    rhs       c5        36944
    rhs       c6        37107
    rhs       c1        3948
RANGES
BOUNDS
 LO bounds    ss[1]     0
 PL bounds    ss[1]
 MI bounds    s[1]
 UP bounds    s[1]      0
 MI bounds    s[2]
 UP bounds    s[2]      0
 MI bounds    s[3]
 UP bounds    s[3]      0
 MI bounds    s[4]
 UP bounds    s[4]      0
 MI bounds    s[5]
 UP bounds    s[5]      0
 BV bounds    x[1]
 BV bounds    x[2]
 BV bounds    x[3]
 BV bounds    x[4]
 BV bounds    x[5]
 BV bounds    x[6]
 BV bounds    x[7]
 BV bounds    x[8]
 BV bounds    x[9]
 BV bounds    x[10]
 BV bounds    x[11]
 BV bounds    x[12]
 BV bounds    x[13]
 BV bounds    x[14]
 BV bounds    x[15]
 BV bounds    x[16]
 BV bounds    x[17]
 BV bounds    x[18]
 BV bounds    x[19]
 BV bounds    x[20]
 BV bounds    x[21]
 BV bounds    x[22]
 BV bounds    x[23]
 BV bounds    x[24]
 BV bounds    x[25]
 BV bounds    x[26]
 BV bounds    x[27]
 BV bounds    x[28]
 BV bounds    x[29]
 BV bounds    x[30]
 BV bounds    x[31]
 BV bounds    x[32]
 BV bounds    x[33]
 BV bounds    x[34]
 BV bounds    x[35]
 BV bounds    x[36]
 BV bounds    x[37]
 BV bounds    x[38]
 BV bounds    x[39]
 BV bounds    x[40]
 BV bounds    x[41]
 BV bounds    x[42]
 BV bounds    x[43]
 BV bounds    x[44]
 BV bounds    x[45]
 BV bounds    x[46]
 BV bounds    x[47]
 BV bounds    x[48]
 BV bounds    x[49]
 BV bounds    x[50]
 BV bounds    x[51]
 BV bounds    x[52]
 BV bounds    x[53]
 BV bounds    x[54]
 BV bounds    x[55]
 BV bounds    x[56]
 BV bounds    x[57]
 BV bounds    x[58]
 BV bounds    x[59]
 BV bounds    x[60]
 BV bounds    x[61]
 BV bounds    x[62]
 BV bounds    x[63]
 BV bounds    x[64]
 BV bounds    x[65]
 BV bounds    x[66]
 BV bounds    x[67]
 BV bounds    x[68]
 BV bounds    x[69]
 BV bounds    x[70]
 BV bounds    x[71]
 BV bounds    x[72]
 BV bounds    x[73]
 BV bounds    x[74]
 BV bounds    x[75]
 BV bounds    x[76]
 BV bounds    x[77]
 BV bounds    x[78]
 BV bounds    x[79]
 BV bounds    x[80]
 BV bounds    x[81]
 BV bounds    x[82]
 BV bounds    x[83]
 BV bounds    x[84]
 BV bounds    x[85]
 BV bounds    x[86]
 BV bounds    x[87]
 BV bounds    x[88]
 BV bounds    x[89]
 BV bounds    x[90]
 BV bounds    x[91]
 BV bounds    x[92]
 BV bounds    x[93]
 BV bounds    x[94]
 BV bounds    x[95]
 BV bounds    x[96]
 BV bounds    x[97]
 BV bounds    x[98]
 BV bounds    x[99]
 BV bounds    x[100]
ENDATA
